(set-info :origin "NTS benchmark converted to SMT-LIB2 using Eldarica (http://lara.epfl.ch/w/eldarica)")
(set-logic HORN)
(declare-fun h1 ((_ BitVec 32) (_ BitVec 32) (_ BitVec 32) (_ BitVec 32) (_ BitVec 32) (_ BitVec 32)) Bool)
(declare-fun h2 ((_ BitVec 32) (_ BitVec 32) (_ BitVec 32) (_ BitVec 32) (_ BitVec 32) (_ BitVec 32)) Bool)
(declare-fun h3 ((_ BitVec 32) (_ BitVec 32) (_ BitVec 32) (_ BitVec 32) (_ BitVec 32) (_ BitVec 32)) Bool)
(declare-fun h4 ((_ BitVec 32) (_ BitVec 32) (_ BitVec 32) (_ BitVec 32) (_ BitVec 32) (_ BitVec 32)) Bool)
(declare-fun h5 ((_ BitVec 32) (_ BitVec 32) (_ BitVec 32) (_ BitVec 32) (_ BitVec 32) (_ BitVec 32)) Bool)
(declare-fun h6 ((_ BitVec 32) (_ BitVec 32) (_ BitVec 32) (_ BitVec 32) (_ BitVec 32) (_ BitVec 32)) Bool)
(declare-fun h7 ((_ BitVec 32) (_ BitVec 32) (_ BitVec 32) (_ BitVec 32) (_ BitVec 32) (_ BitVec 32)) Bool)
(declare-fun h8 ((_ BitVec 32) (_ BitVec 32) (_ BitVec 32) (_ BitVec 32) (_ BitVec 32) (_ BitVec 32)) Bool)
(declare-fun h9 ((_ BitVec 32) (_ BitVec 32) (_ BitVec 32) (_ BitVec 32) (_ BitVec 32) (_ BitVec 32)) Bool)
(declare-fun h10 ((_ BitVec 32) (_ BitVec 32) (_ BitVec 32) (_ BitVec 32) (_ BitVec 32) (_ BitVec 32)) Bool)
(declare-fun h11 ((_ BitVec 32) (_ BitVec 32) (_ BitVec 32) (_ BitVec 32) (_ BitVec 32) (_ BitVec 32)) Bool)
(declare-fun h12 ((_ BitVec 32) (_ BitVec 32) (_ BitVec 32) (_ BitVec 32) (_ BitVec 32) (_ BitVec 32)) Bool)
(declare-fun h13 ((_ BitVec 32) (_ BitVec 32) (_ BitVec 32) (_ BitVec 32) (_ BitVec 32) (_ BitVec 32)) Bool)
(declare-fun h14 ((_ BitVec 32) (_ BitVec 32) (_ BitVec 32) (_ BitVec 32) (_ BitVec 32) (_ BitVec 32)) Bool)
(declare-fun h15 ((_ BitVec 32) (_ BitVec 32) (_ BitVec 32) (_ BitVec 32) (_ BitVec 32) (_ BitVec 32)) Bool)
(declare-fun h16 ((_ BitVec 32) (_ BitVec 32) (_ BitVec 32) (_ BitVec 32) (_ BitVec 32) (_ BitVec 32)) Bool)
(declare-fun h17 ((_ BitVec 32) (_ BitVec 32) (_ BitVec 32) (_ BitVec 32) (_ BitVec 32) (_ BitVec 32)) Bool)
(assert (forall ((A (_ BitVec 32)) (B (_ BitVec 32)) (C (_ BitVec 32)))(=> (= (_ bv1 32) (_ bv1 32)) (h1 A B C A B C))))
(assert (forall ((A (_ BitVec 32)) (B (_ BitVec 32)) (C (_ BitVec 32)) (D (_ BitVec 32)) (E (_ BitVec 32)) (F (_ BitVec 32)) (G (_ BitVec 32)) (H (_ BitVec 32)) (I (_ BitVec 32)))(=> (and (and (and (= D (_ bv0 32)) (= E (_ bv0 32))) (= F (_ bv100 32))) (h1 A B C G H I)) (h2 A B C D E F))))
(assert (forall ((A (_ BitVec 32)) (B (_ BitVec 32)) (C (_ BitVec 32)) (D (_ BitVec 32)) (E (_ BitVec 32)) (F (_ BitVec 32)))(=> (h2 A B C D E F) (h3 A B C D E F))))
(assert (forall ((A (_ BitVec 32)) (B (_ BitVec 32)) (C (_ BitVec 32)) (D (_ BitVec 32)) (E (_ BitVec 32)) (F (_ BitVec 32)))(=> (h3 A B C D E F) (h4 A B C D E F))))
(assert (forall ((A (_ BitVec 32)) (B (_ BitVec 32)) (C (_ BitVec 32)) (D (_ BitVec 32)) (E (_ BitVec 32)) (F (_ BitVec 32)))(=> (h4 A B C D E F) (h5 A B C D E F))))
(assert (forall ((A (_ BitVec 32)) (B (_ BitVec 32)) (C (_ BitVec 32)) (D (_ BitVec 32)) (E (_ BitVec 32)) (F (_ BitVec 32)))(=> (h5 A B C D E F) (h6 A B C D E F))))
(assert (forall ((A (_ BitVec 32)) (B (_ BitVec 32)) (C (_ BitVec 32)) (D (_ BitVec 32)) (E (_ BitVec 32)) (F (_ BitVec 32)))(=> (and (bvsle (bvsub E F) (bvneg (_ bv1 32))) (h6 A B C D E F)) (h7 A B C D E F))))
(assert (forall ((A (_ BitVec 32)) (B (_ BitVec 32)) (C (_ BitVec 32)) (D (_ BitVec 32)) (E (_ BitVec 32)) (F (_ BitVec 32)) (G (_ BitVec 32)) (H (_ BitVec 32)))(=> (and (and (= G (bvadd (bvneg (_ bv2 32)) D)) (= H (bvadd (bvneg (_ bv1 32)) E))) (h7 A B C G H F)) (h8 A B C D E F))))
(assert (forall ((A (_ BitVec 32)) (B (_ BitVec 32)) (C (_ BitVec 32)) (D (_ BitVec 32)) (E (_ BitVec 32)) (F (_ BitVec 32)))(=> (and (bvsge (bvsub E F) (_ bv0 32)) (h6 A B C D E F)) (h9 A B C D E F))))
(assert (forall ((A (_ BitVec 32)) (B (_ BitVec 32)) (C (_ BitVec 32)) (D (_ BitVec 32)) (E (_ BitVec 32)) (F (_ BitVec 32)))(=> (h9 A B C D E F) (h10 A B C D E F))))
(assert (forall ((A (_ BitVec 32)) (B (_ BitVec 32)) (C (_ BitVec 32)) (D (_ BitVec 32)) (E (_ BitVec 32)) (F (_ BitVec 32)))(=> (h10 A B C D E F) (h11 A B C D E F))))
(assert (forall ((A (_ BitVec 32)) (B (_ BitVec 32)) (C (_ BitVec 32)) (D (_ BitVec 32)) (E (_ BitVec 32)) (F (_ BitVec 32)))(=> (h8 A B C D E F) (h5 A B C D E F))))
(assert (forall ((A (_ BitVec 32)) (B (_ BitVec 32)) (C (_ BitVec 32)) (D (_ BitVec 32)) (E (_ BitVec 32)) (F (_ BitVec 32)))(=> (h11 A B C D E F) (h12 A B C D E F))))
(assert (forall ((A (_ BitVec 32)) (B (_ BitVec 32)) (C (_ BitVec 32)) (D (_ BitVec 32)) (E (_ BitVec 32)) (F (_ BitVec 32)))(=> (and (bvsle (bvsub D (bvmul (_ bv2 32) F)) (bvneg (_ bv1 32))) (h12 A B C D E F)) (h13 A B C D E F))))
(assert (not (exists ((A (_ BitVec 32)) (B (_ BitVec 32)) (C (_ BitVec 32)) (D (_ BitVec 32)) (E (_ BitVec 32)) (F (_ BitVec 32)))(h13 A B C D E F))))
(assert (forall ((A (_ BitVec 32)) (B (_ BitVec 32)) (C (_ BitVec 32)) (D (_ BitVec 32)) (E (_ BitVec 32)) (F (_ BitVec 32)))(=> (and (bvsge (bvsub D (bvmul (_ bv2 32) F)) (_ bv1 32)) (h12 A B C D E F)) (h14 A B C D E F))))
(assert (not (exists ((A (_ BitVec 32)) (B (_ BitVec 32)) (C (_ BitVec 32)) (D (_ BitVec 32)) (E (_ BitVec 32)) (F (_ BitVec 32)))(h14 A B C D E F))))
(assert (forall ((A (_ BitVec 32)) (B (_ BitVec 32)) (C (_ BitVec 32)) (D (_ BitVec 32)) (E (_ BitVec 32)) (F (_ BitVec 32)))(=> (and (= D (bvmul (_ bv2 32) F)) (h12 A B C D E F)) (h15 A B C D E F))))
(assert (forall ((A (_ BitVec 32)) (B (_ BitVec 32)) (C (_ BitVec 32)) (D (_ BitVec 32)) (E (_ BitVec 32)) (F (_ BitVec 32)))(=> (h15 A B C D E F) (h16 A B C D E F))))
(assert (forall ((A (_ BitVec 32)) (B (_ BitVec 32)) (C (_ BitVec 32)) (D (_ BitVec 32)) (E (_ BitVec 32)) (F (_ BitVec 32)))(=> (h16 A B C D E F) (h17 A B C D E F))))
(check-sat)
